Route #1: 0 4 34 8 54 35 7 0
Route #2: 0 27 45 5 28 2 0
Route #3: 0 33 1 22 42 41 43 23 0
Route #4: 0 6 16 49 24 51 26 0
Route #5: 0 12 39 9 25 18 50 0
Route #6: 0 17 3 44 32 40 0
Route #7: 0 46 52 15 29 47 30 0
Route #8: 0 13 20 37 36 21 48 0
Route #9: 0 19 14 11 38 0
Route #10: 0 31 10 53 0
Cost 801:
